Version identifier: 22.1.0.0 | 2022-03-09 | 1a383f8ce
CPXPARAM_Threads                                 1
CPXPARAM_MIP_Strategy_VariableSelect             3
CPXPARAM_TimeLimit                               599.99998344699998
1 of 1 MIP starts provided solutions.
MIP start 'm1' defined initial solution with objective 1.0000.
Tried aggregator 1 time.
MIP Presolve eliminated 16 rows and 0 columns.
MIP Presolve modified 53 coefficients.
Reduced MIP has 4505 rows, 10500 columns, and 213226 nonzeros.
Reduced MIP has 10500 binaries, 0 generals, 0 SOSs, and 0 indicators.
Presolve time = 0.20 sec. (349.92 ticks)
Probing time = 0.03 sec. (24.70 ticks)
Tried aggregator 1 time.
Detecting symmetries...
MIP Presolve modified 16 coefficients.
Reduced MIP has 4505 rows, 10500 columns, and 213394 nonzeros.
Reduced MIP has 10500 binaries, 0 generals, 0 SOSs, and 0 indicators.
Presolve time = 0.19 sec. (325.26 ticks)
Probing time = 0.03 sec. (24.71 ticks)
Clique table members: 3739.
MIP emphasis: balance optimality and feasibility.
MIP search method: dynamic search.
Parallel mode: none, using 1 thread.
Root relaxation solution time = 88.00 sec. (109618.60 ticks)

        Nodes                                         Cuts/
   Node  Left     Objective  IInf  Best Integer    Best Bound    ItCnt     Gap

*     0+    0                            1.0000   125250.0000              --- 
      0     0      500.0000  2132        1.0000      500.0000   137332     --- 
Heuristic still looking.
*     0+    0                           74.0000      500.0000           575.68%
*     0+    0                          462.0000      500.0000             8.23%
*     0+    0                          493.0000      500.0000             1.42%
*     0+    0                          497.0000      500.0000             0.60%
*     0+    0                          498.0000      500.0000             0.40%
      0     0        cutoff            498.0000      500.0000   137332    0.40%
Detecting symmetries...
      0     2      500.0000    14      498.0000      500.0000   137332    0.40%
Elapsed time = 145.36 sec. (174366.40 ticks, tree = 0.01 MB, solutions = 6)
      1     3      500.0000   321      498.0000      500.0000   157475    0.40%
      2     4      500.0000   258      498.0000      500.0000   162388    0.40%
      3     5      500.0000  1649      498.0000      500.0000   171029    0.40%
      4     6      500.0000   238      498.0000      500.0000   176122    0.40%
      5     7      500.0000   245      498.0000      500.0000   177826    0.40%
      6     8      500.0000   428      498.0000      500.0000   183656    0.40%
      7     9      500.0000  2308      498.0000      500.0000   188790    0.40%
      8    10      500.0000  1178      498.0000      500.0000   190478    0.40%
      9    11      500.0000   729      498.0000      500.0000   200467    0.40%
     11    13      500.0000   685      498.0000      500.0000   201850    0.40%
Elapsed time = 176.52 sec. (205163.98 ticks, tree = 0.06 MB, solutions = 6)
     14    16      500.0000   689      498.0000      500.0000   204963    0.40%
     17    19      500.0000   661      498.0000      500.0000   208829    0.40%
     19    21      500.0000   717      498.0000      500.0000   214973    0.40%
     21    23      500.0000   627      498.0000      500.0000   224451    0.40%
     24    26      500.0000   687      498.0000      500.0000   227483    0.40%
     27    29      500.0000   641      498.0000      500.0000   232667    0.40%
     29    31      500.0000   647      498.0000      500.0000   240086    0.40%
     30    32      500.0000   653      498.0000      500.0000   242830    0.40%
     32    34      500.0000   705      498.0000      500.0000   252141    0.40%
     34    36      500.0000   662      498.0000      500.0000   254468    0.40%
Elapsed time = 191.85 sec. (219975.10 ticks, tree = 0.16 MB, solutions = 6)
     36    38      500.0000   619      498.0000      500.0000   260559    0.40%
     37    39      500.0000   705      498.0000      500.0000   271996    0.40%
     39    41      500.0000   655      498.0000      500.0000   275054    0.40%
     41    43      500.0000   702      498.0000      500.0000   284234    0.40%
     42    44      500.0000   870      498.0000      500.0000   286841    0.40%
     43    45      500.0000   746      498.0000      500.0000   288987    0.40%
     45    47      500.0000   713      498.0000      500.0000   290839    0.40%
     47    49      500.0000   688      498.0000      500.0000   294561    0.40%
     48    50      500.0000  1088      498.0000      500.0000   310253    0.40%
     50    52      500.0000   647      498.0000      500.0000   313047    0.40%
Elapsed time = 214.11 sec. (240895.26 ticks, tree = 0.64 MB, solutions = 6)
     52    54      500.0000   596      498.0000      500.0000   322738    0.40%
     53    55      500.0000   598      498.0000      500.0000   327602    0.40%
     55    57      500.0000   624      498.0000      500.0000   330354    0.40%
     56    58      500.0000  1059      498.0000      500.0000   334857    0.40%
     58    60      500.0000   509      498.0000      500.0000   338866    0.40%
     60    62      500.0000   483      498.0000      500.0000   343911    0.40%
     62    64      500.0000   665      498.0000      500.0000   352728    0.40%
     65    67      500.0000   370      498.0000      500.0000   353835    0.40%
     67    69      500.0000   310      498.0000      500.0000   359293    0.40%
     69    71      500.0000   318      498.0000      500.0000   362071    0.40%
Elapsed time = 232.89 sec. (258959.11 ticks, tree = 1.38 MB, solutions = 6)
     71    73      500.0000   226      498.0000      500.0000   367566    0.40%
     73    75      500.0000   236      498.0000      500.0000   369769    0.40%
     75    77      500.0000   221      498.0000      500.0000   372126    0.40%
     77    79      500.0000   144      498.0000      500.0000   374244    0.40%
     80    82      500.0000   144      498.0000      500.0000   375120    0.40%
     83    85      500.0000   130      498.0000      500.0000   378052    0.40%
     87    89      500.0000   106      498.0000      500.0000   379372    0.40%
     89    91      500.0000   104      498.0000      500.0000   383415    0.40%
     90    92      500.0000    80      498.0000      500.0000   387557    0.40%
     92    94      500.0000    82      498.0000      500.0000   389381    0.40%
Elapsed time = 244.57 sec. (269940.04 ticks, tree = 2.28 MB, solutions = 6)
     93    95      500.0000   110      498.0000      500.0000   392471    0.40%
     95    97      500.0000    66      498.0000      500.0000   395323    0.40%
     96    98      500.0000    78      498.0000      500.0000   400129    0.40%
     97    99      500.0000   825      498.0000      500.0000   415906    0.40%
     99   101      500.0000    78      498.0000      500.0000   418465    0.40%
    100   102      500.0000    70      498.0000      500.0000   419479    0.40%
    101   103      500.0000   119      498.0000      500.0000   423962    0.40%
    103   105      500.0000    74      498.0000      500.0000   424945    0.40%
    106   108      500.0000    74      498.0000      500.0000   425447    0.40%
    109   111      500.0000    74      498.0000      500.0000   425473    0.40%
Elapsed time = 260.73 sec. (285814.58 ticks, tree = 2.94 MB, solutions = 6)
    112   114      500.0000    70      498.0000      500.0000   426567    0.40%
    115   117      500.0000   104      498.0000      500.0000   432864    0.40%
    116   118      500.0000    60      498.0000      500.0000   434796    0.40%
    117   119      500.0000   126      498.0000      500.0000   445015    0.40%
    118   120      500.0000   104      498.0000      500.0000   455161    0.40%
    119   121      500.0000    92      498.0000      500.0000   457909    0.40%
    121   123      500.0000    92      498.0000      500.0000   462578    0.40%
    122   124      500.0000   136      498.0000      500.0000   466628    0.40%
    124   126      500.0000    99      498.0000      500.0000   470918    0.40%
    126   128      500.0000    76      498.0000      500.0000   473089    0.40%
Elapsed time = 280.99 sec. (306157.25 ticks, tree = 3.57 MB, solutions = 6)
    128   130      500.0000    70      498.0000      500.0000   475560    0.40%
    129   131      500.0000    48      498.0000      500.0000   479199    0.40%
    131   133      500.0000    81      498.0000      500.0000   482633    0.40%
    132   134      500.0000   166      498.0000      500.0000   490369    0.40%
    133   135      500.0000   666      498.0000      500.0000   493404    0.40%
    134   136      500.0000   575      498.0000      500.0000   524117    0.40%
    136   138      500.0000   210      498.0000      500.0000   531127    0.40%
    139   141      500.0000    95      498.0000      500.0000   534162    0.40%
    141   143      500.0000    80      498.0000      500.0000   535168    0.40%
    145   147      500.0000    72      498.0000      500.0000   535384    0.40%
Elapsed time = 301.95 sec. (325939.87 ticks, tree = 4.35 MB, solutions = 6)
    147   147    infeasible            498.0000      500.0000   555351    0.40%
    150   150      500.0000    43      498.0000      500.0000   558095    0.40%
    152   152      500.0000    74      498.0000      500.0000   570635    0.40%
    156   156      500.0000   239      498.0000      500.0000   585678    0.40%
    160   160      500.0000    16      498.0000      500.0000   586992    0.40%
    165   165      500.0000   528      498.0000      500.0000   595158    0.40%
    170   170      500.0000    16      498.0000      500.0000   596889    0.40%
    176   176      500.0000    18      498.0000      500.0000   598214    0.40%
    181   181      500.0000   346      498.0000      500.0000   606554    0.40%
    182   182      500.0000   368      498.0000      500.0000   612828    0.40%
Elapsed time = 323.41 sec. (346949.80 ticks, tree = 5.72 MB, solutions = 6)
    184   182      500.0000   359      498.0000      500.0000   615829    0.40%
    187   185      500.0000   349      498.0000      500.0000   617303    0.40%
    191   189      500.0000   470      498.0000      500.0000   619814    0.40%
    193   191      500.0000   478      498.0000      500.0000   622226    0.40%
    196   194      500.0000   411      498.0000      500.0000   622836    0.40%
    199   197      500.0000   371      498.0000      500.0000   623877    0.40%
    202   200      500.0000   352      498.0000      500.0000   624754    0.40%
    205   201      500.0000   398      498.0000      500.0000   628635    0.40%
    207   201      500.0000   373      498.0000      500.0000   631714    0.40%
    218   210    infeasible            498.0000      500.0000   637520    0.40%
Elapsed time = 339.10 sec. (361842.27 ticks, tree = 6.86 MB, solutions = 6)
    229   217      500.0000   300      498.0000      500.0000   644300    0.40%
    238   216    infeasible            498.0000      500.0000   658346    0.40%
    250   218    infeasible            498.0000      500.0000   668952    0.40%
    261   219      500.0000   360      498.0000      500.0000   681310    0.40%
    273   225      500.0000   367      498.0000      500.0000   689757    0.40%
    283   229      500.0000   333      498.0000      500.0000   701861    0.40%
    294   234      500.0000   246      498.0000      500.0000   714181    0.40%
    303   239      500.0000   254      498.0000      500.0000   725951    0.40%
    317   245      500.0000   230      498.0000      500.0000   737969    0.40%
    331   255      500.0000   215      498.0000      500.0000   747320    0.40%
Elapsed time = 382.34 sec. (402342.43 ticks, tree = 8.58 MB, solutions = 6)
    341   257    infeasible            498.0000      500.0000   764898    0.40%
    349   259      500.0000   164      498.0000      500.0000   780511    0.40%
    359   263    infeasible            498.0000      500.0000   797488    0.40%
    365   265      500.0000    16      498.0000      500.0000   812392    0.40%
    368   268      500.0000   136      498.0000      500.0000   825024    0.40%
    372   272      500.0000   160      498.0000      500.0000   832761    0.40%
    377   277      500.0000   542      498.0000      500.0000   846137    0.40%
    381   279      500.0000   484      498.0000      500.0000   856180    0.40%
    386   280      500.0000   247      498.0000      500.0000   867120    0.40%
    391   283      500.0000   429      498.0000      500.0000   878208    0.40%
Elapsed time = 424.85 sec. (443938.84 ticks, tree = 9.65 MB, solutions = 6)
    397   289      500.0000   396      498.0000      500.0000   892377    0.40%
    405   297      500.0000   463      498.0000      500.0000   896956    0.40%
    410   302      500.0000   304      498.0000      500.0000   904851    0.40%
    418   308      499.0000   427      498.0000      500.0000   913950    0.40%
    424   310      499.0000   239      498.0000      500.0000   930458    0.40%
    432   316      499.0000   161      498.0000      500.0000   947507    0.40%
    441   321      500.0000   432      498.0000      500.0000   961579    0.40%
    445   324      499.0000   527      498.0000      500.0000   971812    0.40%
    456   329    infeasible            498.0000      500.0000   978238    0.40%
    468   329    infeasible            498.0000      500.0000   988629    0.40%
Elapsed time = 469.31 sec. (486948.99 ticks, tree = 11.53 MB, solutions = 6)
    479   328    infeasible            498.0000      500.0000   998024    0.40%
    485   332    infeasible            498.0000      500.0000  1008701    0.40%
    493   338      500.0000   386      498.0000      500.0000  1025044    0.40%
    500   345      500.0000   376      498.0000      500.0000  1030927    0.40%
    506   351      500.0000   319      498.0000      500.0000  1039048    0.40%
    512   355      500.0000   211      498.0000      500.0000  1048926    0.40%
    522   360      499.0000   317      498.0000      500.0000  1058151    0.40%
    533   371      499.0000   336      498.0000      500.0000  1062759    0.40%
    545   377      499.0000   314      498.0000      500.0000  1069948    0.40%
    558   386      499.0000   266      498.0000      500.0000  1076726    0.40%
Elapsed time = 511.47 sec. (528080.50 ticks, tree = 13.72 MB, solutions = 6)
    564   386      500.0000   326      498.0000      500.0000  1094921    0.40%
    571   391      500.0000   513      498.0000      500.0000  1102639    0.40%
    580   394      500.0000   504      498.0000      500.0000  1112632    0.40%
    588   396    infeasible            498.0000      500.0000  1123716    0.40%
    599   403      500.0000    18      498.0000      500.0000  1128620    0.40%
Starting limited solution polishing.
    600   404      500.0000   380      498.0000      500.0000  1135514    0.40%
    610   414      500.0000   643      498.0000      500.0000  1139489    0.40%
    618   419      500.0000   499      498.0000      500.0000  1144942    0.40%
    627   422    infeasible            498.0000      500.0000  1151476    0.40%
    638   427      500.0000   465      498.0000      500.0000  1157464    0.40%
Elapsed time = 557.96 sec. (574187.17 ticks, tree = 15.32 MB, solutions = 6)
    646   433      500.0000   503      498.0000      500.0000  1163920    0.40%
    650   432      499.0000   512      498.0000      500.0000  1169707    0.40%
    661   437      499.0000   501      498.0000      500.0000  1177586    0.40%
    669   437      500.0000   161      498.0000      500.0000  1188038    0.40%
    673   441      500.0000   328      498.0000      500.0000  1196854    0.40%
    681   449      500.0000   358      498.0000      500.0000  1202833    0.40%
    690   449      499.0000   228      498.0000      500.0000  1213706    0.40%
    695   450      500.0000   493      498.0000      500.0000  1225524    0.40%
    704   454      500.0000    16      498.0000      500.0000  1234669    0.40%

Clique cuts applied:  1

Root node processing (before b&c):
  Real time             =  144.74 sec. (173907.88 ticks)
Sequential b&c:
  Real time             =  455.27 sec. (441438.72 ticks)
                          ------------
Total (root+branch&cut) =  600.01 sec. (615346.60 ticks)
Primal:	498
Dual:	500
Status:	Feasible
Time:	600.07
Sequence:
	8
	13
	7
	8
	13
	7
	17
	4
	6
	9
	11
	13
	9
	7
	0
	6
	9
	11
	4
	9
	0
	14
	9
	0
	7
	9
	6
	11
	1
	15
	11
	1
	15
	0
	10
	15
	0
	10
	15
	0
	10
	15
	0
	10
	15
	0
	10
	15
	0
	10
	15
	0
	10
	4
	12
	19
	16
	12
	19
	16
	12
	19
	16
	12
	19
	16
	12
	19
	16
	12
	19
	16
	12
	1
	16
	12
	1
	16
	12
	1
	16
	12
	1
	5
	2
	18
	3
	2
	18
	3
	5
	8
	16
	13
	8
	14
	4
	8
	14
	13
	8
	14
	6
	17
	7
	5
	8
	7
	6
	17
	7
	13
	17
	7
	4
	8
	16
	6
	17
	14
	4
	17
	7
	5
	8
	14
	5
	8
	7
	4
	17
	14
	13
	8
	5
	14
	17
	3
	13
	10
	2
	0
	10
	2
	4
	10
	6
	0
	10
	15
	0
	10
	2
	0
	10
	15
	0
	10
	15
	0
	10
	3
	13
	17
	14
	5
	9
	11
	4
	9
	0
	7
	9
	6
	11
	9
	5
	14
	17
	13
	7
	17
	6
	14
	17
	13
	16
	8
	13
	16
	1
	12
	5
	19
	11
	2
	6
	10
	0
	15
	1
	11
	15
	1
	11
	15
	1
	11
	15
	1
	11
	15
	1
	11
	15
	1
	11
	2
	19
	11
	2
	1
	11
	13
	9
	11
	4
	2
	18
	3
	2
	18
	4
	2
	18
	3
	2
	18
	3
	2
	18
	3
	2
	18
	3
	2
	18
	4
	3
	17
	4
	14
	8
	5
	14
	8
	4
	7
	17
	13
	16
	8
	13
	7
	17
	4
	7
	8
	13
	14
	17
	4
	14
	8
	6
	16
	8
	13
	16
	8
	5
	14
	1
	12
	14
	1
	12
	7
	19
	12
	14
	1
	12
	16
	19
	12
	16
	19
	12
	16
	19
	12
	7
	19
	4
	12
	1
	16
	12
	1
	7
	12
	19
	16
	12
	19
	14
	0
	9
	7
	0
	9
	16
	3
	8
	13
	5
	8
	7
	13
	17
	7
	5
	8
	7
	5
	8
	7
	5
	8
	13
	16
	8
	13
	7
	8
	5
	7
	8
	13
	7
	17
	6
	16
	8
	5
	7
	8
	13
	7
	17
	13
	16
	8
	13
	16
	8
	6
	14
	17
	3
	3
	18
	2
	4
	18
	2
	3
	18
	2
	4
	18
	2
	3
	18
	2
	4
	10
	12
	13
	1
	12
	14
	19
	12
	16
	19
	5
	7
	8
	5
	3
	18
	2
	3
	18
	2
	4
	18
	2
	4
	10
	12
	4
	1
	11
	15
	1
	11
	15
	1
	11
	6
	9
	14
	0
	9
	7
	0
	9
	14
	0
	9
	4
	11
	9
	4
	11
	9
	4
	11
	9
	13
	11
	9
	13
	11
	9
	4
	11
	9
	6
	11
	9
	5
	7
	8
	6
	7
	17
	3
	7
	17
	13
	14
	8
	5
	14
	17
	6
	14
	17
	3
	4
	18
	2
	4
	18
	3
	3
	17
	13
	7
	12
	1
	16
	12
	19
	16
	12
	19
	5
	12
	10
	6
	0
	10
	15
